71
0 63 11 6 64 23 35 55 16 49 
42 14 40 57 26 67 1 2 36 22 
20 18 62 47 21 39 48 4 34 29 
65 41 5 27 12 45 56 31 54 19 
8 61 32 3 9 13 44 69 17 10 
43 53 33 59 7 25 24 46 70 66 
60 58 51 50 52 38 15 37 28 30 
68 
